c testni_primer_1min.txt 
c barvanje grafa [[1, 5], [0, 2, 3], [1, 3, 5], [2, 4], [3, 5], [0, 4], [0, 3, 4], [2, 5, 7], [1, 2, 3]]
p cnf nekaj nekaj
00 01 02 03 0
-00 -01 0
-00 -02 0
-00 -03 0
-01 -02 0
-01 -03 0
-02 -03 0
-00 -10 0
-01 -11 0
-02 -12 0
-03 -13 0
-00 -50 0
-01 -51 0
-02 -52 0
-03 -53 0
10 11 12 13 0
-10 -11 0
-10 -12 0
-10 -13 0
-11 -12 0
-11 -13 0
-12 -13 0
-10 -00 0
-11 -01 0
-12 -02 0
-13 -03 0
-10 -20 0
-11 -21 0
-12 -22 0
-13 -23 0
-10 -30 0
-11 -31 0
-12 -32 0
-13 -33 0
20 21 22 23 0
-20 -21 0
-20 -22 0
-20 -23 0
-21 -22 0
-21 -23 0
-22 -23 0
-20 -10 0
-21 -11 0
-22 -12 0
-23 -13 0
-20 -30 0
-21 -31 0
-22 -32 0
-23 -33 0
-20 -50 0
-21 -51 0
-22 -52 0
-23 -53 0
30 31 32 33 0
-30 -31 0
-30 -32 0
-30 -33 0
-31 -32 0
-31 -33 0
-32 -33 0
-30 -20 0
-31 -21 0
-32 -22 0
-33 -23 0
-30 -40 0
-31 -41 0
-32 -42 0
-33 -43 0
40 41 42 43 0
-40 -41 0
-40 -42 0
-40 -43 0
-41 -42 0
-41 -43 0
-42 -43 0
-40 -30 0
-41 -31 0
-42 -32 0
-43 -33 0
-40 -50 0
-41 -51 0
-42 -52 0
-43 -53 0
50 51 52 53 0
-50 -51 0
-50 -52 0
-50 -53 0
-51 -52 0
-51 -53 0
-52 -53 0
-50 -00 0
-51 -01 0
-52 -02 0
-53 -03 0
-50 -40 0
-51 -41 0
-52 -42 0
-53 -43 0
60 61 62 63 0
-60 -61 0
-60 -62 0
-60 -63 0
-61 -62 0
-61 -63 0
-62 -63 0
-60 -00 0
-61 -01 0
-62 -02 0
-63 -03 0
-60 -30 0
-61 -31 0
-62 -32 0
-63 -33 0
-60 -40 0
-61 -41 0
-62 -42 0
-63 -43 0
70 71 72 73 0
-70 -71 0
-70 -72 0
-70 -73 0
-71 -72 0
-71 -73 0
-72 -73 0
-70 -20 0
-71 -21 0
-72 -22 0
-73 -23 0
-70 -50 0
-71 -51 0
-72 -52 0
-73 -53 0
-70 -70 0
-71 -71 0
-72 -72 0
-73 -73 0
80 81 82 83 0
-80 -81 0
-80 -82 0
-80 -83 0
-81 -82 0
-81 -83 0
-82 -83 0
-80 -10 0
-81 -11 0
-82 -12 0
-83 -13 0
-80 -20 0
-81 -21 0
-82 -22 0
-83 -23 0
-80 -30 0
-81 -31 0
-82 -32 0
-83 -33 0